benchmarks/VRPTW/TSPTW/ins/n200w20.001.txt
!! n200w20.001    20.14 1145


CUST NO.   XCOORD.   YCOORD.    DEMAND   READY TIME   DUE DATE   SERVICE TIME


    1      47.00       9.00       0.00       0.00    1154.00       0.00
    2      46.00       2.00       0.00      81.00      98.00       0.00
    3      37.00      34.00       0.00     204.00     238.00       0.00
    4      12.00      26.00       0.00     474.00     498.00       0.00
    5      19.00      20.00       0.00     625.00     650.00       0.00
    6      35.00      48.00       0.00    1029.00    1052.00       0.00
    7      17.00       7.00       0.00     295.00     321.00       0.00
    8       6.00      32.00       0.00     443.00     462.00       0.00
    9      36.00      43.00       0.00     173.00     196.00       0.00
   10      36.00      41.00       0.00     168.00     185.00       0.00
   11       5.00      24.00       0.00     472.00     484.00       0.00
   12      15.00      11.00       0.00     286.00     314.00       0.00
   13       8.00      44.00       0.00     549.00     580.00       0.00
   14       2.00      24.00       0.00     428.00     448.00       0.00
   15       4.00      18.00       0.00     657.00     663.00       0.00
   16      34.00      13.00       0.00      46.00      79.00       0.00
   17       4.00       5.00       0.00     398.00     418.00       0.00
   18      20.00      44.00       0.00     512.00     525.00       0.00
   19      36.00      46.00       0.00     184.00     205.00       0.00
   20       9.00      44.00       0.00     562.00     578.00       0.00
   21      49.00      15.00       0.00      80.00     100.00       0.00
   22      10.00      31.00       0.00     669.00     701.00       0.00
   23      27.00      20.00       0.00     271.00     296.00       0.00
   24      43.00      14.00       0.00      15.00      36.00       0.00
   25      44.00      10.00       0.00       8.00      10.00       0.00
   26      45.00      13.00       0.00       0.00      22.00       0.00
   27       4.00      46.00       0.00     565.00     587.00       0.00
   28      25.00      24.00       0.00     233.00     259.00       0.00
   29       3.00       4.00       0.00    1092.00    1110.00       0.00
   30      30.00      26.00       0.00     252.00     275.00       0.00
   31      20.00       3.00       0.00     307.00     320.00       0.00
   32      20.00       0.00       0.00     325.00     349.00       0.00
   33       7.00      10.00       0.00     373.00     400.00       0.00
   34      11.00      18.00       0.00     363.00     398.00       0.00
   35      43.00      11.00       0.00       8.00      28.00       0.00
   36      38.00      17.00       0.00     766.00     795.00       0.00
   37      26.00      14.00       0.00     283.00     303.00       0.00
   38      45.00       2.00       0.00      39.00      42.00       0.00
   39      12.00       2.00       0.00     337.00     347.00       0.00
   40       7.00      22.00       0.00     652.00     677.00       0.00
   41      19.00      31.00       0.00     714.00     741.00       0.00
   42      39.00      41.00       0.00     161.00     186.00       0.00
   43      19.00      20.00       0.00     731.00     746.00       0.00
   44      34.00      47.00       0.00     184.00     189.00       0.00
   45      35.00      19.00       0.00     783.00     804.00       0.00
   46      15.00      38.00       0.00     548.00     560.00       0.00
   47      49.00      35.00       0.00     129.00     161.00       0.00
   48      16.00      14.00       0.00     288.00     318.00       0.00
   49       3.00      22.00       0.00     412.00     450.00       0.00
   50      35.00      15.00       0.00      55.00      69.00       0.00
   51      50.00      30.00       0.00     123.00     148.00       0.00
   52      32.00      42.00       0.00     174.00     191.00       0.00
   53      26.00      16.00       0.00     269.00     291.00       0.00
   54      50.00      37.00       0.00     145.00     170.00       0.00
   55      12.00      49.00       0.00     571.00     584.00       0.00
   56      49.00      34.00       0.00     141.00     164.00       0.00
   57      48.00      46.00       0.00     199.00     217.00       0.00
   58      15.00      26.00       0.00     621.00     643.00       0.00
   59      22.00      26.00       0.00     239.00     269.00       0.00
   60      48.00      25.00       0.00     126.00     134.00       0.00
   61      44.00       8.00       0.00       0.00      14.00       0.00
   62      26.00      24.00       0.00     249.00     265.00       0.00
   63      33.00      16.00       0.00     773.00     792.00       0.00
   64      17.00       8.00       0.00     351.00     367.00       0.00
   65      23.00      23.00       0.00     249.00     254.00       0.00
   66      22.00      48.00       0.00     510.00     533.00       0.00
   67       8.00      13.00       0.00     377.00     396.00       0.00
   68      17.00      13.00       0.00     301.00     313.00       0.00
   69       2.00       7.00       0.00     396.00     427.00       0.00
   70       6.00      36.00       0.00     440.00     465.00       0.00
   71      20.00      20.00       0.00     633.00     647.00       0.00
   72      10.00      26.00       0.00     472.00     498.00       0.00
   73       0.00      29.00       0.00     461.00     482.00       0.00
   74      40.00      43.00       0.00     182.00     210.00       0.00
   75      38.00       6.00       0.00      21.00      33.00       0.00
   76      13.00       3.00       0.00     341.00     356.00       0.00
   77      49.00      23.00       0.00     108.00     112.00       0.00
   78       4.00      20.00       0.00     410.00     448.00       0.00
   79      19.00       9.00       0.00     309.00     322.00       0.00
   80      13.00      32.00       0.00     490.00     507.00       0.00
   81      23.00      32.00       0.00     490.00     516.00       0.00
   82      21.00       1.00       0.00     308.00     336.00       0.00
   83      20.00      31.00       0.00     485.00     514.00       0.00
   84      12.00      25.00       0.00     483.00     506.00       0.00
   85      39.00       8.00       0.00      18.00      35.00       0.00
   86       9.00      23.00       0.00     660.00     681.00       0.00
   87      36.00      32.00       0.00     221.00     239.00       0.00
   88      27.00      21.00       0.00     260.00     281.00       0.00
   89      24.00      43.00       0.00     532.00     541.00       0.00
   90      45.00      39.00       0.00     150.00     176.00       0.00
   91       1.00      12.00       0.00     415.00     427.00       0.00
   92      18.00      25.00       0.00     625.00     649.00       0.00
   93      50.00       3.00       0.00     838.00     843.00       0.00
   94       2.00      36.00       0.00     447.00     463.00       0.00
   95       7.00      38.00       0.00     453.00     459.00       0.00
   96      35.00      34.00       0.00     223.00     233.00       0.00
   97      42.00       4.00       0.00      35.00      41.00       0.00
   98      48.00      36.00       0.00     133.00     167.00       0.00
   99      45.00      18.00       0.00     794.00     825.00       0.00
  100      27.00      19.00       0.00     253.00     287.00       0.00
  101       1.00      28.00       0.00     422.00     440.00       0.00
  102      23.00      43.00       0.00     511.00     524.00       0.00
  103      13.00      15.00       0.00     371.00     387.00       0.00
  104      25.00      45.00       0.00     514.00     547.00       0.00
  105      46.00      36.00       0.00     142.00     161.00       0.00
  106      30.00      36.00       0.00     223.00     243.00       0.00
  107      45.00       6.00       0.00       0.00      24.00       0.00
  108      46.00      31.00       0.00     110.00     134.00       0.00
  109      25.00      25.00       0.00     239.00     262.00       0.00
  110      43.00       6.00       0.00      33.00      60.00       0.00
  111       4.00      37.00       0.00     433.00     464.00       0.00
  112       6.00      12.00       0.00     413.00     440.00       0.00
  113      47.00      29.00       0.00     110.00     129.00       0.00
  114      35.00      35.00       0.00     220.00     239.00       0.00
  115      47.00      16.00       0.00      97.00     103.00       0.00
  116      13.00      38.00       0.00     688.00     712.00       0.00
  117      32.00       8.00       0.00      57.00      72.00       0.00
  118      30.00      17.00       0.00     266.00     299.00       0.00
  119      11.00       8.00       0.00     388.00     412.00       0.00
  120      25.00      18.00       0.00     260.00     278.00       0.00
  121      24.00      40.00       0.00     512.00     528.00       0.00
  122      12.00      29.00       0.00     473.00     501.00       0.00
  123      12.00      13.00       0.00     364.00     390.00       0.00
  124      18.00      12.00       0.00     296.00     302.00       0.00
  125      32.00      50.00       0.00     887.00     902.00       0.00
  126      17.00      37.00       0.00     534.00     556.00       0.00
  127      20.00       2.00       0.00     303.00     330.00       0.00
  128      40.00      13.00       0.00      44.00      58.00       0.00
  129      36.00      34.00       0.00     216.00     236.00       0.00
  130      35.00       5.00       0.00      49.00      87.00       0.00
  131      43.00      31.00       0.00     117.00     136.00       0.00
  132      17.00      19.00       0.00     630.00     661.00       0.00
  133       4.00      29.00       0.00     428.00     447.00       0.00
  134      27.00      40.00       0.00     903.00     915.00       0.00
  135      41.00      12.00       0.00       6.00      34.00       0.00
  136      37.00      10.00       0.00      14.00      30.00       0.00
  137      45.00      26.00       0.00     100.00     130.00       0.00
  138      24.00      36.00       0.00     496.00     516.00       0.00
  139      47.00      18.00       0.00      86.00     119.00       0.00
  140       2.00       6.00       0.00     396.00     409.00       0.00
  141      11.00      24.00       0.00     471.00     492.00       0.00
  142      32.00       8.00       0.00     815.00     844.00       0.00
  143      21.00      39.00       0.00     537.00     560.00       0.00
  144      46.00      29.00       0.00     107.00     123.00       0.00
  145      34.00      31.00       0.00     747.00     761.00       0.00
  146      12.00      25.00       0.00     720.00     725.00       0.00
  147       7.00      28.00       0.00     460.00     487.00       0.00
  148      23.00       1.00       0.00     309.00     336.00       0.00
  149      22.00       6.00       0.00     352.00     375.00       0.00
  150      30.00      27.00       0.00     754.00     769.00       0.00
  151      21.00      39.00       0.00     502.00     519.00       0.00
  152      14.00      40.00       0.00     534.00     569.00       0.00
  153      26.00      49.00       0.00     525.00     543.00       0.00
  154      17.00      48.00       0.00     591.00     621.00       0.00
  155       0.00      16.00       0.00     655.00     682.00       0.00
  156       4.00       0.00       0.00     978.00     985.00       0.00
  157      29.00      31.00       0.00     231.00     243.00       0.00
  158      10.00      25.00       0.00     470.00     503.00       0.00
  159      27.00      15.00       0.00     265.00     296.00       0.00
  160      23.00       5.00       0.00     317.00     329.00       0.00
  161       0.00      18.00       0.00     956.00     967.00       0.00
  162       3.00      49.00       0.00     585.00     593.00       0.00
  163      16.00      32.00       0.00     484.00     511.00       0.00
  164      12.00      19.00       0.00     635.00     656.00       0.00
  165      18.00      39.00       0.00     541.00     573.00       0.00
  166      21.00      20.00       0.00     635.00     661.00       0.00
  167      24.00      12.00       0.00     292.00     298.00       0.00
  168       4.00      24.00       0.00     431.00     436.00       0.00
  169      13.00       1.00       0.00     336.00     340.00       0.00
  170       9.00      32.00       0.00     618.00     642.00       0.00
  171      26.00      14.00       0.00     785.00     797.00       0.00
  172      25.00      29.00       0.00     226.00     252.00       0.00
  173      34.00      41.00       0.00     164.00     187.00       0.00
  174      43.00      13.00       0.00       7.00      20.00       0.00
  175      13.00      10.00       0.00     363.00     373.00       0.00
  176      13.00      30.00       0.00     619.00     638.00       0.00
  177      19.00      31.00       0.00     491.00     517.00       0.00
  178       9.00       5.00       0.00     336.00     366.00       0.00
  179       2.00      32.00       0.00     684.00     709.00       0.00
  180       4.00       8.00       0.00     398.00     417.00       0.00
  181       3.00      17.00       0.00     423.00     435.00       0.00
  182       1.00      32.00       0.00     447.00     470.00       0.00
  183      27.00      16.00       0.00     282.00     301.00       0.00
  184      43.00      28.00       0.00     128.00     138.00       0.00
  185      33.00       8.00       0.00      54.00      72.00       0.00
  186      36.00      25.00       0.00     928.00     931.00       0.00
  187      35.00      31.00       0.00     226.00     241.00       0.00
  188       7.00      27.00       0.00     680.00     682.00       0.00
  189       2.00       8.00       0.00     394.00     407.00       0.00
  190      40.00      24.00       0.00     767.00     774.00       0.00
  191       7.00      11.00       0.00     380.00     407.00       0.00
  192      49.00      45.00       0.00     881.00     891.00       0.00
  193       7.00      39.00       0.00     599.00     623.00       0.00
  194      49.00      41.00       0.00     187.00     221.00       0.00
  195       2.00      25.00       0.00     434.00     449.00       0.00
  196      13.00       1.00       0.00     334.00     357.00       0.00
  197      21.00      11.00       0.00     277.00     313.00       0.00
  198      37.00       1.00       0.00      71.00      90.00       0.00
  199      12.00      43.00       0.00     552.00     577.00       0.00
  200      12.00      16.00       0.00     374.00     386.00       0.00
  201      41.00      34.00       0.00    1044.00    1060.00       0.00
  999       0.00       0.00       0.00       0.00       0.00       0.00