benchmarks/VRPTW/TSPTW/solution/n200w20.001.txt.solution
1 107 61 25 35 26 174 24 135 136 85 75 97 38 110 128 50 16 117 185 130 198 2 21 115 139 77 144 113 108 131 184 137 60 51 56 47 54 98 105 90 42 10 9 173 52 44 19 74 57 194 3 129 87 187 96 114 106 157 172 59 65 28 109 62 30 88 23 100 120 53 183 118 159 37 167 197 124 68 48 12 7 79 160 31 127 148 82 32 196 169 39 178 76 149 64 175 123 103 200 34 67 191 33 119 17 140 69 189 180 112 91 181 78 49 168 14 195 101 133 8 70 95 111 94 182 73 11 147 72 158 141 84 4 122 80 163 177 83 81 138 151 121 102 18 66 153 104 89 143 165 126 46 152 199 55 20 13 27 162 154 193 170 176 58 92 166 71 5 132 164 15 155 40 86 188 179 22 116 41 146 43 150 145 190 36 63 171 45 99 142 93 192 125 134 186 161 156 6 201 29 
1019
